InSb                
   2.00000000000
    10.0000000000000000    5.0000000000000000   10.0000000000000000
    10.0000000000000000   25.0000000000000000   20.0000000000000000
    20.0000000000000000   25.0000000000000000   40.0000000000000000
    In    Sb
     4     4
Select
Direct
  1.0000000000000000  1.1000000000000000  1.2000000000000000 T F T   
  1.1000000000000000  1.2000000000000000  1.3000000000000000 F T F
  1.2000000000000000  1.3000000000000000  1.4000000000000000 T F T
  1.3000000000000000  1.4000000000000000  1.5000000000000000 F T F
  1.4000000000000000  1.5000000000000000  1.6000000000000000 T F T
  1.5000000000000000  1.6000000000000000  1.7000000000000000 F T F
  1.6000000000000000  1.7000000000000000  1.8000000000000000 T F T
  1.7000000000000000  1.8000000000000000  1.9000000000000000 F T F
