InSb                
  2.000000
 10.0000000000000000   5.0000000000000000  10.0000000000000000
 10.0000000000000000  25.0000000000000000  20.0000000000000000
 20.0000000000000000  25.0000000000000000  40.0000000000000000
  In  Sb
   4   4
Select
Cart
  5.0000000000000000   7.5000000000000000  10.0000000000000000    T  F  T
  9.0000000000000000  13.0000000000000000  17.0000000000000000    F  T  F
 13.0000000000000000  18.5000000000000000  24.0000000000000000    T  F  T
 17.0000000000000000  24.0000000000000000  31.0000000000000000    F  T  F
 21.0000000000000000  29.5000000000000000  38.0000000000000000    T  F  T
 25.0000000000000000  35.0000000000000000  45.0000000000000000    F  T  F
 29.0000000000000000  40.5000000000000000  52.0000000000000000    T  F  T
 33.0000000000000000  46.0000000000000000  59.0000000000000000    F  T  F
