InSb                
   2.00000000000
    10.0000000000000000    5.0000000000000000   10.0000000000000000
    10.0000000000000000   25.0000000000000000   20.0000000000000000
    20.0000000000000000   25.0000000000000000   40.0000000000000000
     4     4
Select
Direct
  0.0000000000000000  0.1000000000000000  0.2000000000000000 T F T   
  0.1000000000000000  0.2000000000000000  0.3000000000000000 F T F
  0.2000000000000000  0.3000000000000000  0.4000000000000000 T F T
  0.3000000000000000  0.4000000000000000  0.5000000000000000 F T F
  0.4000000000000000  0.5000000000000000  0.6000000000000000 T F T
  0.5000000000000000  0.6000000000000000  0.7000000000000000 F T F
  0.6000000000000000  0.7000000000000000  0.8000000000000000 T F T
  0.7000000000000000  0.8000000000000000  0.9000000000000000 F T F
